c 2x2 Grid problem
c Nodes: 1--2
c        |  |
c        3--4
c Supply at node 1 (top-left), demand at node 4 (bottom-right)
c Two shortest paths: 1->2->4 or 1->3->4
c Costs designed so 1->2->4 is cheaper (cost 2+3 = 5)
c Alternative 1->3->4 costs 4+1 = 5 (tie)
p min 4 4
n 1 15
n 4 -15
a 1 2 0 15 2
a 1 3 0 15 4
a 2 4 0 15 3
a 3 4 0 15 1